SCIP version 5.0.0 [precision: 8 byte] [memory: block] [mode: optimized] [LP solver: NONE] [GitHash: 3bbd232]
Copyright (C) 2002-2017 Konrad-Zuse-Zentrum fuer Informationstechnik Berlin (ZIB)

External codes: 
  Readline EditLine w  GNU library for command line editing (gnu.org/s/readline)
  CppAD 20160000.1     Algorithmic Differentiation of C++ algorithms developed by B. Bell (www.coin-or.org/CppAD)
  ZLIB 1.2.5           General purpose compression library by J. Gailly and M. Adler (zlib.net)
  GMP 6.1.2            GNU Multiple Precision Arithmetic Library developed by T. Granlund (gmplib.org)

user parameter file <scip.set> not found - using default parameters

read problem <../../Split_data/output/breast/4/1_sample_breast.logreg>
============

File name	:	../../Split_data/output/breast/4/1_sample_breast.logreg
Problem name 	:	1_sample_breast
Number of data	:	156
Number of var	:	33
The given data has linear independence

[dim=1] time: 0.004243
[dim=2] time: 0.008338
[dim=3] time: 0.012536
[dim=4] time: 0.016497
[dim=5] time: 0.020483
[dim=6] time: 0.024818
[dim=7] time: 0.028537
[dim=8] time: 0.032215
[dim=9] time: 0.035949
[dim=10] time: 0.03937
[dim=11] time: 0.043059
[dim=12] time: 0.046396
[dim=13] time: 0.049316
[dim=14] Time of forward = 0.05202sec.
AIC: 129.099
k: 13

[dim=33] time: 0.012875
[dim=32] time: 0.025823
[dim=31] time: 0.034901
[dim=30] time: 0.044055
[dim=29] time: 0.056385
[dim=28] time: 0.066115
[dim=27] time: 0.082235
[dim=26] time: 0.090445
[dim=25] time: 0.096573
[dim=24] time: 0.102914
[dim=23] Time of backward = 0.113259sec.
AIC: 118.72
k: 24
